# hf/6-31g opt=Z-Matrix pop=nbo

charges

0 1
h1
o2 1 r
h3 2 r 1 a

r = 1.0
a = 104.5

