# hf/6-31g opt=Z-Matrix output=wfn pop=nbo

hf/6-31g optimization of water

0 1
h1
o2 1 r
h3 2 r 1 a

r = 1.0
a = 104.5

h2o.wfn

